100 6292
168 84 294 378 332 378 415 498 747 415 336 336 378 664 664 332 168 83 84 747 168 84 581 252 498 83 747 126 830 747 84 420 581 210 581 581 166 166 249 498 581 249 747 420 84 42 83 126 332 830 249 84 210 336 252 415 664 664 498 420 294 166 252 830 830 83 249 336 415 581 166 415 378 126 378 336 378 83 294 830 498 126 84 581 42 415 83 830 83 747 210 252 166 126 42 332 126 498 84 664 
560 280 980 1260 484 1260 605 726 1089 605 1120 1120 1260 968 968 484 560 121 280 1089 560 280 847 840 726 121 1089 420 1210 1089 280 1400 847 700 847 847 242 242 363 726 847 363 1089 1400 280 140 121 420 484 1210 363 280 700 1120 840 605 968 968 726 1400 980 242 840 1210 1210 121 363 1120 605 847 242 605 1260 420 1260 1120 1260 121 980 1210 726 420 280 847 140 605 121 1210 121 1089 700 840 242 420 140 484 420 726 280 968 
